18
14 17
14 9
14 15
14 5
14 10
14 0
14 7
14 12
14 8
14 4
14 13
17 10
17 1
17 0
17 12
17 2
17 3
17 9
17 8
17 15
17 11
10 0
10 6
10 4
10 13
10 1
10 8
10 16
10 11
10 9
1 11
1 0
1 16
1 5
1 3
1 4
1 7
1 2
1 8
0 4
0 5
0 8
0 12
0 16
0 3
0 13
3 7
3 12
3 6
3 5
3 15
3 9
3 2
3 13
7 6
7 15
7 2
7 5
7 11
7 4
7 16
7 9
2 5
2 6
2 11
2 8
2 13
2 9
2 16
5 11
5 13
5 9
5 6
5 12
11 15
11 16
11 6
11 13
11 12
6 16
6 4
6 15
6 8
6 12
12 4
12 13
12 9
12 15
4 16
4 15
4 13
4 9
8 15
8 9
8 13
8 16
15 16
15 13
9 16
